60

 0   1   2   3   4   5   6   7   8   9   1   2   3   4   5   6   7   8   9  10   2   3   4   5   6   7   8   9  10  11   3   4   5   6   7   8   9  10  11  12   4   5   6   7   8   9  10  11  12  13   5   6   7   8   9  10  11  12  13  14  
 1   0   1   2   3   4   5   6   7   8   2   1   2   3   4   5   6   7   8   9   3   2   3   4   5   6   7   8   9  10   4   3   4   5   6   7   8   9  10  11   5   4   5   6   7   8   9  10  11  12   6   5   6   7   8   9  10  11  12  13  
 2   1   0   1   2   3   4   5   6   7   3   2   1   2   3   4   5   6   7   8   4   3   2   3   4   5   6   7   8   9   5   4   3   4   5   6   7   8   9  10   6   5   4   5   6   7   8   9  10  11   7   6   5   6   7   8   9  10  11  12  
 3   2   1   0   1   2   3   4   5   6   4   3   2   1   2   3   4   5   6   7   5   4   3   2   3   4   5   6   7   8   6   5   4   3   4   5   6   7   8   9   7   6   5   4   5   6   7   8   9  10   8   7   6   5   6   7   8   9  10  11  
 4   3   2   1   0   1   2   3   4   5   5   4   3   2   1   2   3   4   5   6   6   5   4   3   2   3   4   5   6   7   7   6   5   4   3   4   5   6   7   8   8   7   6   5   4   5   6   7   8   9   9   8   7   6   5   6   7   8   9  10  
 5   4   3   2   1   0   1   2   3   4   6   5   4   3   2   1   2   3   4   5   7   6   5   4   3   2   3   4   5   6   8   7   6   5   4   3   4   5   6   7   9   8   7   6   5   4   5   6   7   8  10   9   8   7   6   5   6   7   8   9  
 6   5   4   3   2   1   0   1   2   3   7   6   5   4   3   2   1   2   3   4   8   7   6   5   4   3   2   3   4   5   9   8   7   6   5   4   3   4   5   6  10   9   8   7   6   5   4   5   6   7  11  10   9   8   7   6   5   6   7   8  
 7   6   5   4   3   2   1   0   1   2   8   7   6   5   4   3   2   1   2   3   9   8   7   6   5   4   3   2   3   4  10   9   8   7   6   5   4   3   4   5  11  10   9   8   7   6   5   4   5   6  12  11  10   9   8   7   6   5   6   7  
 8   7   6   5   4   3   2   1   0   1   9   8   7   6   5   4   3   2   1   2  10   9   8   7   6   5   4   3   2   3  11  10   9   8   7   6   5   4   3   4  12  11  10   9   8   7   6   5   4   5  13  12  11  10   9   8   7   6   5   6  
 9   8   7   6   5   4   3   2   1   0  10   9   8   7   6   5   4   3   2   1  11  10   9   8   7   6   5   4   3   2  12  11  10   9   8   7   6   5   4   3  13  12  11  10   9   8   7   6   5   4  14  13  12  11  10   9   8   7   6   5  
 1   2   3   4   5   6   7   8   9  10   0   1   2   3   4   5   6   7   8   9   1   2   3   4   5   6   7   8   9  10   2   3   4   5   6   7   8   9  10  11   3   4   5   6   7   8   9  10  11  12   4   5   6   7   8   9  10  11  12  13  
 2   1   2   3   4   5   6   7   8   9   1   0   1   2   3   4   5   6   7   8   2   1   2   3   4   5   6   7   8   9   3   2   3   4   5   6   7   8   9  10   4   3   4   5   6   7   8   9  10  11   5   4   5   6   7   8   9  10  11  12  
 3   2   1   2   3   4   5   6   7   8   2   1   0   1   2   3   4   5   6   7   3   2   1   2   3   4   5   6   7   8   4   3   2   3   4   5   6   7   8   9   5   4   3   4   5   6   7   8   9  10   6   5   4   5   6   7   8   9  10  11  
 4   3   2   1   2   3   4   5   6   7   3   2   1   0   1   2   3   4   5   6   4   3   2   1   2   3   4   5   6   7   5   4   3   2   3   4   5   6   7   8   6   5   4   3   4   5   6   7   8   9   7   6   5   4   5   6   7   8   9  10  
 5   4   3   2   1   2   3   4   5   6   4   3   2   1   0   1   2   3   4   5   5   4   3   2   1   2   3   4   5   6   6   5   4   3   2   3   4   5   6   7   7   6   5   4   3   4   5   6   7   8   8   7   6   5   4   5   6   7   8   9  
 6   5   4   3   2   1   2   3   4   5   5   4   3   2   1   0   1   2   3   4   6   5   4   3   2   1   2   3   4   5   7   6   5   4   3   2   3   4   5   6   8   7   6   5   4   3   4   5   6   7   9   8   7   6   5   4   5   6   7   8  
 7   6   5   4   3   2   1   2   3   4   6   5   4   3   2   1   0   1   2   3   7   6   5   4   3   2   1   2   3   4   8   7   6   5   4   3   2   3   4   5   9   8   7   6   5   4   3   4   5   6  10   9   8   7   6   5   4   5   6   7  
 8   7   6   5   4   3   2   1   2   3   7   6   5   4   3   2   1   0   1   2   8   7   6   5   4   3   2   1   2   3   9   8   7   6   5   4   3   2   3   4  10   9   8   7   6   5   4   3   4   5  11  10   9   8   7   6   5   4   5   6  
 9   8   7   6   5   4   3   2   1   2   8   7   6   5   4   3   2   1   0   1   9   8   7   6   5   4   3   2   1   2  10   9   8   7   6   5   4   3   2   3  11  10   9   8   7   6   5   4   3   4  12  11  10   9   8   7   6   5   4   5  
10   9   8   7   6   5   4   3   2   1   9   8   7   6   5   4   3   2   1   0  10   9   8   7   6   5   4   3   2   1  11  10   9   8   7   6   5   4   3   2  12  11  10   9   8   7   6   5   4   3  13  12  11  10   9   8   7   6   5   4  
 2   3   4   5   6   7   8   9  10  11   1   2   3   4   5   6   7   8   9  10   0   1   2   3   4   5   6   7   8   9   1   2   3   4   5   6   7   8   9  10   2   3   4   5   6   7   8   9  10  11   3   4   5   6   7   8   9  10  11  12  
 3   2   3   4   5   6   7   8   9  10   2   1   2   3   4   5   6   7   8   9   1   0   1   2   3   4   5   6   7   8   2   1   2   3   4   5   6   7   8   9   3   2   3   4   5   6   7   8   9  10   4   3   4   5   6   7   8   9  10  11  
 4   3   2   3   4   5   6   7   8   9   3   2   1   2   3   4   5   6   7   8   2   1   0   1   2   3   4   5   6   7   3   2   1   2   3   4   5   6   7   8   4   3   2   3   4   5   6   7   8   9   5   4   3   4   5   6   7   8   9  10  
 5   4   3   2   3   4   5   6   7   8   4   3   2   1   2   3   4   5   6   7   3   2   1   0   1   2   3   4   5   6   4   3   2   1   2   3   4   5   6   7   5   4   3   2   3   4   5   6   7   8   6   5   4   3   4   5   6   7   8   9  
 6   5   4   3   2   3   4   5   6   7   5   4   3   2   1   2   3   4   5   6   4   3   2   1   0   1   2   3   4   5   5   4   3   2   1   2   3   4   5   6   6   5   4   3   2   3   4   5   6   7   7   6   5   4   3   4   5   6   7   8  
 7   6   5   4   3   2   3   4   5   6   6   5   4   3   2   1   2   3   4   5   5   4   3   2   1   0   1   2   3   4   6   5   4   3   2   1   2   3   4   5   7   6   5   4   3   2   3   4   5   6   8   7   6   5   4   3   4   5   6   7  
 8   7   6   5   4   3   2   3   4   5   7   6   5   4   3   2   1   2   3   4   6   5   4   3   2   1   0   1   2   3   7   6   5   4   3   2   1   2   3   4   8   7   6   5   4   3   2   3   4   5   9   8   7   6   5   4   3   4   5   6  
 9   8   7   6   5   4   3   2   3   4   8   7   6   5   4   3   2   1   2   3   7   6   5   4   3   2   1   0   1   2   8   7   6   5   4   3   2   1   2   3   9   8   7   6   5   4   3   2   3   4  10   9   8   7   6   5   4   3   4   5  
10   9   8   7   6   5   4   3   2   3   9   8   7   6   5   4   3   2   1   2   8   7   6   5   4   3   2   1   0   1   9   8   7   6   5   4   3   2   1   2  10   9   8   7   6   5   4   3   2   3  11  10   9   8   7   6   5   4   3   4  
11  10   9   8   7   6   5   4   3   2  10   9   8   7   6   5   4   3   2   1   9   8   7   6   5   4   3   2   1   0  10   9   8   7   6   5   4   3   2   1  11  10   9   8   7   6   5   4   3   2  12  11  10   9   8   7   6   5   4   3  
 3   4   5   6   7   8   9  10  11  12   2   3   4   5   6   7   8   9  10  11   1   2   3   4   5   6   7   8   9  10   0   1   2   3   4   5   6   7   8   9   1   2   3   4   5   6   7   8   9  10   2   3   4   5   6   7   8   9  10  11  
 4   3   4   5   6   7   8   9  10  11   3   2   3   4   5   6   7   8   9  10   2   1   2   3   4   5   6   7   8   9   1   0   1   2   3   4   5   6   7   8   2   1   2   3   4   5   6   7   8   9   3   2   3   4   5   6   7   8   9  10  
 5   4   3   4   5   6   7   8   9  10   4   3   2   3   4   5   6   7   8   9   3   2   1   2   3   4   5   6   7   8   2   1   0   1   2   3   4   5   6   7   3   2   1   2   3   4   5   6   7   8   4   3   2   3   4   5   6   7   8   9  
 6   5   4   3   4   5   6   7   8   9   5   4   3   2   3   4   5   6   7   8   4   3   2   1   2   3   4   5   6   7   3   2   1   0   1   2   3   4   5   6   4   3   2   1   2   3   4   5   6   7   5   4   3   2   3   4   5   6   7   8  
 7   6   5   4   3   4   5   6   7   8   6   5   4   3   2   3   4   5   6   7   5   4   3   2   1   2   3   4   5   6   4   3   2   1   0   1   2   3   4   5   5   4   3   2   1   2   3   4   5   6   6   5   4   3   2   3   4   5   6   7  
 8   7   6   5   4   3   4   5   6   7   7   6   5   4   3   2   3   4   5   6   6   5   4   3   2   1   2   3   4   5   5   4   3   2   1   0   1   2   3   4   6   5   4   3   2   1   2   3   4   5   7   6   5   4   3   2   3   4   5   6  
 9   8   7   6   5   4   3   4   5   6   8   7   6   5   4   3   2   3   4   5   7   6   5   4   3   2   1   2   3   4   6   5   4   3   2   1   0   1   2   3   7   6   5   4   3   2   1   2   3   4   8   7   6   5   4   3   2   3   4   5  
10   9   8   7   6   5   4   3   4   5   9   8   7   6   5   4   3   2   3   4   8   7   6   5   4   3   2   1   2   3   7   6   5   4   3   2   1   0   1   2   8   7   6   5   4   3   2   1   2   3   9   8   7   6   5   4   3   2   3   4  
11  10   9   8   7   6   5   4   3   4  10   9   8   7   6   5   4   3   2   3   9   8   7   6   5   4   3   2   1   2   8   7   6   5   4   3   2   1   0   1   9   8   7   6   5   4   3   2   1   2  10   9   8   7   6   5   4   3   2   3  
12  11  10   9   8   7   6   5   4   3  11  10   9   8   7   6   5   4   3   2  10   9   8   7   6   5   4   3   2   1   9   8   7   6   5   4   3   2   1   0  10   9   8   7   6   5   4   3   2   1  11  10   9   8   7   6   5   4   3   2  
 4   5   6   7   8   9  10  11  12  13   3   4   5   6   7   8   9  10  11  12   2   3   4   5   6   7   8   9  10  11   1   2   3   4   5   6   7   8   9  10   0   1   2   3   4   5   6   7   8   9   1   2   3   4   5   6   7   8   9  10  
 5   4   5   6   7   8   9  10  11  12   4   3   4   5   6   7   8   9  10  11   3   2   3   4   5   6   7   8   9  10   2   1   2   3   4   5   6   7   8   9   1   0   1   2   3   4   5   6   7   8   2   1   2   3   4   5   6   7   8   9  
 6   5   4   5   6   7   8   9  10  11   5   4   3   4   5   6   7   8   9  10   4   3   2   3   4   5   6   7   8   9   3   2   1   2   3   4   5   6   7   8   2   1   0   1   2   3   4   5   6   7   3   2   1   2   3   4   5   6   7   8  
 7   6   5   4   5   6   7   8   9  10   6   5   4   3   4   5   6   7   8   9   5   4   3   2   3   4   5   6   7   8   4   3   2   1   2   3   4   5   6   7   3   2   1   0   1   2   3   4   5   6   4   3   2   1   2   3   4   5   6   7  
 8   7   6   5   4   5   6   7   8   9   7   6   5   4   3   4   5   6   7   8   6   5   4   3   2   3   4   5   6   7   5   4   3   2   1   2   3   4   5   6   4   3   2   1   0   1   2   3   4   5   5   4   3   2   1   2   3   4   5   6  
 9   8   7   6   5   4   5   6   7   8   8   7   6   5   4   3   4   5   6   7   7   6   5   4   3   2   3   4   5   6   6   5   4   3   2   1   2   3   4   5   5   4   3   2   1   0   1   2   3   4   6   5   4   3   2   1   2   3   4   5  
10   9   8   7   6   5   4   5   6   7   9   8   7   6   5   4   3   4   5   6   8   7   6   5   4   3   2   3   4   5   7   6   5   4   3   2   1   2   3   4   6   5   4   3   2   1   0   1   2   3   7   6   5   4   3   2   1   2   3   4  
11  10   9   8   7   6   5   4   5   6  10   9   8   7   6   5   4   3   4   5   9   8   7   6   5   4   3   2   3   4   8   7   6   5   4   3   2   1   2   3   7   6   5   4   3   2   1   0   1   2   8   7   6   5   4   3   2   1   2   3  
12  11  10   9   8   7   6   5   4   5  11  10   9   8   7   6   5   4   3   4  10   9   8   7   6   5   4   3   2   3   9   8   7   6   5   4   3   2   1   2   8   7   6   5   4   3   2   1   0   1   9   8   7   6   5   4   3   2   1   2  
13  12  11  10   9   8   7   6   5   4  12  11  10   9   8   7   6   5   4   3  11  10   9   8   7   6   5   4   3   2  10   9   8   7   6   5   4   3   2   1   9   8   7   6   5   4   3   2   1   0  10   9   8   7   6   5   4   3   2   1  
 5   6   7   8   9  10  11  12  13  14   4   5   6   7   8   9  10  11  12  13   3   4   5   6   7   8   9  10  11  12   2   3   4   5   6   7   8   9  10  11   1   2   3   4   5   6   7   8   9  10   0   1   2   3   4   5   6   7   8   9  
 6   5   6   7   8   9  10  11  12  13   5   4   5   6   7   8   9  10  11  12   4   3   4   5   6   7   8   9  10  11   3   2   3   4   5   6   7   8   9  10   2   1   2   3   4   5   6   7   8   9   1   0   1   2   3   4   5   6   7   8  
 7   6   5   6   7   8   9  10  11  12   6   5   4   5   6   7   8   9  10  11   5   4   3   4   5   6   7   8   9  10   4   3   2   3   4   5   6   7   8   9   3   2   1   2   3   4   5   6   7   8   2   1   0   1   2   3   4   5   6   7  
 8   7   6   5   6   7   8   9  10  11   7   6   5   4   5   6   7   8   9  10   6   5   4   3   4   5   6   7   8   9   5   4   3   2   3   4   5   6   7   8   4   3   2   1   2   3   4   5   6   7   3   2   1   0   1   2   3   4   5   6  
 9   8   7   6   5   6   7   8   9  10   8   7   6   5   4   5   6   7   8   9   7   6   5   4   3   4   5   6   7   8   6   5   4   3   2   3   4   5   6   7   5   4   3   2   1   2   3   4   5   6   4   3   2   1   0   1   2   3   4   5  
10   9   8   7   6   5   6   7   8   9   9   8   7   6   5   4   5   6   7   8   8   7   6   5   4   3   4   5   6   7   7   6   5   4   3   2   3   4   5   6   6   5   4   3   2   1   2   3   4   5   5   4   3   2   1   0   1   2   3   4  
11  10   9   8   7   6   5   6   7   8  10   9   8   7   6   5   4   5   6   7   9   8   7   6   5   4   3   4   5   6   8   7   6   5   4   3   2   3   4   5   7   6   5   4   3   2   1   2   3   4   6   5   4   3   2   1   0   1   2   3  
12  11  10   9   8   7   6   5   6   7  11  10   9   8   7   6   5   4   5   6  10   9   8   7   6   5   4   3   4   5   9   8   7   6   5   4   3   2   3   4   8   7   6   5   4   3   2   1   2   3   7   6   5   4   3   2   1   0   1   2  
13  12  11  10   9   8   7   6   5   6  12  11  10   9   8   7   6   5   4   5  11  10   9   8   7   6   5   4   3   4  10   9   8   7   6   5   4   3   2   3   9   8   7   6   5   4   3   2   1   2   8   7   6   5   4   3   2   1   0   1  
14  13  12  11  10   9   8   7   6   5  13  12  11  10   9   8   7   6   5   4  12  11  10   9   8   7   6   5   4   3  11  10   9   8   7   6   5   4   3   2  10   9   8   7   6   5   4   3   2   1   9   8   7   6   5   4   3   2   1   0  

 0   0  66  90   0   0   0   0   0   0   0   0  77   0   0   0   0   0   0  53  18   0   0   8  72   0   9   0  92  18   0   1   0   0   0   0   0  99   0   0   0   2   0   4   0   0   0   0   0  32   0  69   0   0   3   1   0   0  43   0  
 0   0   0   0  30   0   0   0   0  61  84   0   0   0   0  16  85  49   0  57   0   0  97  92   0  41   0   0   0   0   0   0  15   0   0   0   0   0   0   0  24   0  59   0   0   0  12  64   0   0  11   0  56   0  83   0   0  86  71   0  
 0   0   0   0   0   0  78  73   0   0   0   0   0   0  21  96   0  98   0  77   0  16  28   0   0   0   0   0   0  36   0   0   0   0  69   0   0  20   0   0  37   0   0   0   0   0   0   0   0   0   0   0   0  18  73   0   0  49  75  93  
 0   0   0   0   0   0  13   0  67  70  69   0   0  58   0   0   0   0   0   0   0   0   0   0  28   0  26   0   0   0   0   0   0  65   0   0   0   0  55  73   0   0   0  37   0   0   0   5  74  78   0   0  16   0   0  98   0   0   0  65  
54   7   0   0   0  60  47  67  70   0  57  76   0   0  62   0   0   0  89   0   0   0   0   0   0   0  93   0   0   0   0   0   0   0  67   0   0   0   0  17   0   0  68   0   0   0  42   0  94   0  18   0   0   0  77  10   0   0   0   0  
 0  29   0   0   0   0  48   0   0   0   0   0   0   0   0  34   0   0   0   0   0   0  52   0   0   0   0   0   2   2   0   0   0   0   0   0   0   0   0   0   0  81   0   0   0   0   7   0   0   0   0   0   0  43   0   0  50   0   0   0  
 0   0   0   0  39   0   0   0   0  69  22   0   0   0   0  37  64   0   0  43  11   0   0   0   0   0   0  65   0   0   8   0   0  48   0   0   0  27   0   0  80   0   0   0  15   0   0   0   0  35   0  40   0   0   0  19   0   0   0   0  
 0   0  19   0   0   0   0   0   0  17  23   0  98   0   0   0   0   0  31   0   9   0  65  47  83   0   0  59   0   0   0   0   0  79   0   0   0  20   0  57  10   0   0   0   0   0   0   0   0   3   0   0  41  14   0   0   0  33   0   0  
11  92   0   0  86   0   0   0   0   0   0   0   0   0   0   0   0   0  70   0   0  88  84   3   0  36   0   0  79   0   0   0  47  61   0   0   0   0   0  10   0   0   0   0   0   0   0   0  78   0  85   0   0   0  96   0   0   0   0  69  
84   0  57   0  26   0   0   0   0   0   0   0  29  43   0  33  16   0   0  52   0   0   0   0  19   0  97  39   2   0   0   0  71   0   0   0   0   0  32   0  90   0  55   0   0  28  22  58   0   0   0   0  81   0   0   0   0   0   0   0  
27   0   0  32  43   7   0   0   0   0   0   0   0   0   0   0   0   0   0  53   0   0   0   0   0   0   0   0   7   0  20  22   4   0  25   0   0   0   0   0   0   0   0   0   0   0  60   0   0   1   0   0   0  36   2   0   0   0   0   0  
51  96  64  90   0   0   0  18  97   0   0   0   0  26  58   0   0   0   0   0   0   0  32   0   0   0   0  21   0   0   0   0   0  82   0  64   0   0   0   0   0   0   0   0  14  92   0  83  43   0  62   1   0  35   7  51   0   0   0   0  
 0   0  85   0   0  41   0   0   0   0   0   0   0  92   0   0   0   0   0  30  88   0  13   0   0   0  57   0   0   0   0   0  24   0  89   0  35   0   0   0  21   0  89   0   0   0   0   0  64   0   0  87   0  38   0  81   0   0   0   0  
 0   0   0   8   6   0   0   0   0  59  54  36   0   0  73   0  69   0   0   0   0  43   0   0   0   0  21   0   0  99  72   0   0   0  54   0  52  83   0   0   0   0   0   0  25   0  93  51   0   7   0   0  43   0   0   0   0   0   0   0  
 0   0   0  26   0   0  59   0   0   0   6   0   0   0   0   0   0  12   0  64   0  98   0   0   0   0   0  38  30   0   0   0   0   0   0   0   1   0   0   0   0   0   0  53   0   0  76   0  21  39   0   0   0  38  97  81   0   0  24  12  
 0   0   0   0  17   0  33  52  10  23   0   0   0  79  38   0   0  24   0   0   0   0   0   0   0  40   0  19  89   0   0   0   0   0   0   5   0   0   0   0  36  55   0   0   0  45   0  89  90   0   0   0   0   0   0  88  45  33   0   2  
75  59  90  80   0   0   0   0   0   0  82   0   0   0   0  80   0   0   0   0   0   0   0   0  58   0   0   0   0   0  51   0   0   0  88  22   0  77  33  74   0  85   0  11   0  64   0  84   0   0  32  55  34   0  30   0   0   0  45  39  
56   0   0   0   0   0   0  74   0   0  72   0   0  14  34   0   0   0   0   0   0   0  36   0   0   0  80  14   0   0  32   0   0   0   0   0   0   0   0   0   0  48   0   0   0   0   0   0   0   0   0  30   0  82   0   0  37  20   0   0  
 0   0   0  43   0   0  66   0  58   3   0  14  90   0  52   0   0   0   0   0  94   0  54   0   0  37   0  75   0   0   0  43   0   9   0  89  88   0  69   0   0   0   0  69   0   0   0   0   2  74   0   0   0   0  39  34  17   0   0   0  
 0  90   0   0  71   0   0   0  80   0   0   0  91   0  96   0   0   0  71   0   0   1   0  11   0   0  36   0   0  68  58   0   0  30   0  35  57   0  44   0  32   0   0   0  89   0  26  75  22  63   0   0  56   4   0  70   0   4   0   0  
 0  79  22   0   0   0  42   0   2  70   0  85  26   0   0  68   0   0   0   0   0   0   0   0   0   0   0   0   0   0   0   0   0   0   0   0   0  90   0   0   0   0  60   6  12   0   0   0  69   0  45   0  58   0   0   0   0   0   0   0  
 0   0  93  51   0   0   0   0  39   0   0   0  85   0  44   0   0  85  15   0   0   0   0   0  25   0   0   3  64   0  76   0   0   0   0  71  16  58   0   0   0  74  26   0  25   0  55   0   0   0  75   0   0   0   0   0   0   0  69   0  
 0   0   0   0   0   0  99   0   0   0   0  76   0   0  78  27  50   0   0  13   0  90   0   0   0  15   0   0   0   0   0   0   0   0  73  62   0   0   0   0   0   0  11  96  55   0   0  81  57  53   0   0   0  28  28   0   3   0   0   0  
 0  32   0   0   0   0  96   0   0  30   0   0   0   0  79   0   0   0   0   0   0   0  53   0  41   0   0   0  59  25   0  16   0   0  24   0   0   0  73   0   0   0  65   0  21  41   0   0   0   0   0   0  23   0   0   0   0   0   0   0  
 0  95   0   0  11   0  10   0   0  49  89   0  70   0  27   0   0   0  89  61   0   0   0   0   0   0  31  13  97  32   0  21   0  95   0   0   0  41  37   2  54  57   0  74   0  20   0   0   0  75   4  70   0   0  11   0  62   0   0   0  
 0   0  78   0   0   0  13  86   0  77  75   0   0   0   0   0   0   0  32   7   0   0  97   0   0   0   0  92   0   0   0   0   0   0  44   0   0  64   0   0   0   0   0  16   0   0   0   0   0   0  98  82   0   9   0   0   0   0   0  71  
 0  75   0   0   0  98  44   0  41   0  12  18   0   0  66   0  48   0   0   0   0   0   0   0   1  97   0   0  36   0   0   0   2   0   0   0   0   0   0   0   0   0   0   0   0   0   0   0   0  22  21   0   0   0   0   0   0   0   0  41  
 0   0   0  52  17   0   0   0   0  62   0   0   0   0  47   0  27   0  43   0   0   0   0  22   0  33   0   0  25   0   0  95   0   0   0   0  20   0  22   0   0  52   0   0   0  44  22  10  74   0   0  98   0   0   0  53   0   0   8  86  
 0  94   0   0   0   0   0  61  30  89  19   0   0  29  57   0   0   0  55   2   0   0   0   0   0  17   0   0   0  99   0   1   0   0  76   0  65   0   7   0   0   0   0  83  49   0   0   0   0   0  10   0  64   0   0  54  68   0   0   0  
 0   0   0   0  39   5   0   0   0   0   0   0  30   0   0  59   0  19  67   0   0   0   0   8  65  27   0   0   0   0   0  73  11   0  61   0  35  85   0   0   0   0  61  75   0   0   0   4   0  47   0   0   0   0   0   0   0   0   0   0  
70   0  59  76   0  18  47   0   0   0  27   0   0  63   0  41   0   0   0   0   0   0  95   0  59   5  24  89   0   0   0  25   0   0   1   0  77   0   0   0   0  30   0   0  71   0  92   0   0   0   0  17  90   0   0   0   0  38   0   0  
 0   0   0   0   0   0  81   0  75   0  92   0   0   0   0   0   0   0  83   0   0  46   0   0   0  51  50   0   0   0   0   0   0   0   0   0   0   0  28  83   0  62   0  74   0   0   0  92   0   0   0  62   0   0   2   0  40   0  59   0  
31   0  69  92   0   0   0  99   0  60   8   0  14   0   0  24   0   0  79   0  44   0   0   0  19  88   0  86   0   0  34   0   0   0   0  72   0   0   0  84  20  22   0   1  66  62   0   0   0   0   0   0  93  78  33   0   0   0   0  30  
14  64  48  23   9   0   0   0  84   0   0   0   0   0  30   0   0   2   0   0   0  39   0   0  95   0  88  12   0  41   0   0  56   0   0  24   0  36  57   0   0   0   0   0   0   0   0   0  27  55  51  61   0   0   0  70   0  96   0   0  
 0   0   0   0  22   0   0   0   0   0   0  67  92   0  28   0  95   0   0   0   0  50   0   0  66   0   0   0   0   0   0   0  85   0   0   0   0   0  20   0   0   0   0   0   0   0   0  69  39   0   0   0   0   0  46   0  58   0  65   0  
 0   0   0  10   0   0   0   0   0   0   0   0  99   0   0   0   0   0   0  59   0   0   0   0   0   0  51  33   0   0   0   5   0  57  78   0   4  37   9   0   0   0   0   0  26   0  39   0   0   0   0   0   0   0   0   0   0   0   0  54  
61  31   1   0  36   0   0   0   0   0  65   0   0  72   0   0   0  79  30   0   0   0   0   0  29   0  70  70   0   0  43   0   0  64   0  50   0   0   0   0   0   0   0   0  99   0   0  45   7  90  55   0  18   0   0  29   0   0   0   0  
 0   0   0   0   0  62  45  80  65   0  70   0   0   0   0   0   0   0   0   0  15   0   0  12   0   0  74   0   0   0   0   0   0   0  37  13   0   0   0   0   0   0   0   0  85  44   0   0  99   0   0   0   0   6   0   0   0   0   0   0  
 0  72   0   0   0  86  87   0   0   0  98   0   0   0   0  19   0   0   0  38   0   0   0   0   0   0   0   0   0  16   0   0   0   0   0   0   0   0   0   0  93  16   0  91   0   0   0  27  13   0  83   0  51   0  38   0   0   0   0  21  
 0  42   0   0  51   0   0   0   0  56   0   0  35   0   7   0   0   0   0  86   0   0   0   0  12   2   0  67   0  64   0   0  94   0   0   0  32   0   0   0  26   0   0  83   6   0   7   0  31   0  21   0   0   0  31   0   0   0   0   0  
78  24  55  63  84   0   0  80   0   0  84   0   0   0  58   0   0   0   0   0   0  56   3  46   0   0  38   0  33  58   0   0   0   0  28  45  97  60   0  70   0   0   0   0   0   0  54   0  41   0   0   0   0   0   0   0   0   0   1   0  
30   0   1   0   0   0   0   0   0   0   0   0  71   0   0   0   0   0   0   0  72  93   0  65   0   6  89   0  82   0   0   0   0  30   1  90   0  25   0   0  12   0   0   0  55   0   9   0  81   0   0   0   0   0   0   0  99   0  69   2  
58   0  58   0  31   0   0   0  62   0   0   0   0   0   0  84   0  58   0   0  78   0  29   0   0  60  98   0   0  15   0   0   0  93   0   0   0   0   0   0   0   0   0  64   0  89   0  24   0   0   0   0   0   0  43   0   0  38   0   0  
 0   0  18  87   0   0   0   0  41   0  93   0  17   0   0   0   0   0  10   0  37  80   0  53   0  71  11   0  19   0   0   0   0   0   0   0   0  31  93  44  33  22   0   0   2   0   0   0  29  29  59   0  36   0   0  86  67   0   0   0  
37   0   0   0  11   0   0   0  84   0   0   0   0   1   0   0   0   0   0   0   0   0  51   0  97   0   0   0  85   0   0   0   0   0   7   0   0   0   0   0   0   0  67   0   0  52  93  10   0   0   0   0   0  47   0   0  39   0  97   7  
 1   0   0   0   0   0   0   0   0   0  94  33   0   0   0   0   0  38  76   0   0   0   0  70   0   0   0   0  71   8  28   0  68  18  99   0   0  23   0   0   0   0   0   0  93   0   0  14   0   0   0   0   0   0   0   0   0   0  24  93  
 0   0   0   0   0  75   0   0   9   0   4  99  18   0   0  13   0  95   0  22   4   0   0   0   0   0  20   0   0   0  20   0   0  48   0  73  53   0   0   0   0   0  53   0   0  87   0   0   0   0   0   1   0  40   0  18  46   0   2   0  
 0  99   0  36   0   0   0   0  70   0  67   0  64   0   0   0   0   0   0  17   0  23  85  94   0   0   0   0   0   0   0   0  96   0   0   0   0   0  90  41   0   0   0  23   6   0   0   0  72   0   0   0   0  61   0  92   0   0   0  47  
 0   0   0   0  57   0   0   0   0   0   9   0   0   0   0  62   0   0   0  51   0   0   0   0   0  21   1   0   0   0   0   0  98   0   0  64   0   0   0   0   0   0   0   2   0   0   0  34   0  62  98  21   0  37   0   0  25   0  95   9  
 0  51  44   0   0   0  56   0   0   0  55   0   0   0  12   0   0  46   0   0   0  78   0   0   0   0   0   0   0   0   0   4   0  67   0   0   0   0   0   0   0   0   0   0   0   0   0  58   0   0  39   0   0   0   0   0   0   0   0   0  
 0  15  90  31   0   0  10   0  74   0  66  22   0   4   0   0   0   0  48   2   1   0   4   0   0   0  52   0   0   0   0   0   0   0   0   0   0   0   0   0   0   0   0   0   0  46   0   0   0  81   0  11  46  63   0   0  27   0   0  65  
 3   0   0  25   0   0  84   0   0   0  20   0   0   5   0   0  64   0  95   0   0  49   0  87   0  58   0   0   0   0  22   0  76   0   0   0   0   0   0   0   0   0   0   0  81   0   0  75  89   0   0   0  86   0   0   0   0   0   0   0  
41   0   0  92   0   0  88  92  63   0   1  41   0   0   0   0   0   0   0   0   0   0   1  92  51   0   0   0   0   0  15   0   0   0   0   0   0  99   1   0   0   0   0   0   0  23   0   0  22   0  71  52   0   0  18   0   0   0   0   0  
 0   0   0  62   0   4   0   0   0   0   0   0   0   0   0   0  83   0   0  35   0   0   0   0  91   0   0   0   0   0   0   0  13   2   0  81  39   0   0   0   0  49   0   0   0   0  33  43   0  49   0   0  30   0   0   0  68   0   0   0  
 0   0   0   0  92   0   0   0  19   0   0  81  61   0   0   2   0  76  65  54  23   0   0  88  25  24   0   0   0   0  86   0   0  73   0   0  69   0   0  44  13   0   0  69  60   0   0  48   0  25   0  25  56   0   0   0   0   0  32   0  
 0   8   0   0   0  10   0   0   0  50  44   0  59  11   0  97   0   0  34  63  79   0  39   0  44   0   0   0   0  27  37   0  81   0   1   0   0   0   0  50   0   0   0   0   0  97   0  47   0  72   0   0   0   0   0   0   0   0   0   0  
70   0   0   0  67   0   0   0   0  19   0   0   0  81   0   0   0   0   0   0   0   0   0   0   0  52  85   0   0   0   0   0   0   0   0  17   0  66   0   0   0   0   0   0  47  95   0   0   0   0  26   0   0   0   0   0   0  99   0   0  
43   0  10  89  75  72  16  31   0   0   0   0   0  45  69   0   0  60   0   0   0   0   0  52   0   7   0   0   0   0   0  55   0   0  92   0   0   0   0   2   0   0  40   0   9   0  74   0  58   0   0  98   0   0   0   0   0   0   0   0  
 0   0   0  66  93   0  23  66   0  58   1   0   0   0   0  80   0   0  63   0  46   0   0   0   0   7   0   0   0   0   0   0   0   0  98   0  55   6   0   0   0   0   0   0   0   0  36   0   0   0   0   0  90   0  60   0   0   0   0   0  
 0  76   0   0   0  33   0   0   0   0  41   0   0   0   0   0  83   0  54   0   0   0  73   0   0   0  53  12   0   0   0   0  41  47  18  15   0   0   6   0   0   0   0   0   0  48   0   0   0   4   0   0   0   0  37   0   0  23   1   0  
